array [1..2] of int: X_INTRODUCED_1_ = [1,-1];
var {111,112,113,122,211,212,213}: Vo1:: output_var;
var {111,112,113,122,211,212,213,223}: Vo2:: output_var;
var {111,112,113,122,211,212,213,223}: Vo3:: output_var;
var {111,112,113,122,211,212,213,223}: Vo4:: output_var;
var {111,112,113,122,211,212,213}: Vp1:: output_var;
var {111,112,113,122,211,212,213,223}: Vp2:: output_var;
var {111,112,113,122,211,212,213,223}: Vp3:: output_var;
var {111,112,113,122,211,212,213,223}: Vp4:: output_var;
var 1..2: X_INTRODUCED_2_ ::var_is_introduced :: is_defined_var;
var 1..2: X_INTRODUCED_3_ ::var_is_introduced :: is_defined_var;
var bool: X_INTRODUCED_4_ ::var_is_introduced :: is_defined_var;
var {11,12,21,22}: X_INTRODUCED_5_ ::var_is_introduced :: is_defined_var;
var 1..2: X_INTRODUCED_6_ ::var_is_introduced ;
var {11,21}: X_INTRODUCED_7_ ::var_is_introduced :: is_defined_var;
var 1..2: X_INTRODUCED_8_ ::var_is_introduced ;
var bool: X_INTRODUCED_9_ ::var_is_introduced :: is_defined_var;
var 1..3: X_INTRODUCED_10_ ::var_is_introduced ;
var 1..3: X_INTRODUCED_12_ ::var_is_introduced ;
var bool: X_INTRODUCED_14_ ::var_is_introduced :: is_defined_var;
var 1..2: X_INTRODUCED_15_ ::var_is_introduced :: is_defined_var;
var bool: X_INTRODUCED_17_ ::var_is_introduced :: is_defined_var;
var {11,12,21,22}: X_INTRODUCED_18_ ::var_is_introduced :: is_defined_var;
var 1..2: X_INTRODUCED_19_ ::var_is_introduced ;
var bool: X_INTRODUCED_20_ ::var_is_introduced :: is_defined_var;
var 1..3: X_INTRODUCED_21_ ::var_is_introduced ;
var bool: X_INTRODUCED_22_ ::var_is_introduced :: is_defined_var;
var 1..2: X_INTRODUCED_23_ ::var_is_introduced :: is_defined_var;
var bool: X_INTRODUCED_24_ ::var_is_introduced :: is_defined_var;
var {11,12,21,22}: X_INTRODUCED_25_ ::var_is_introduced :: is_defined_var;
var 1..2: X_INTRODUCED_26_ ::var_is_introduced ;
var bool: X_INTRODUCED_28_ ::var_is_introduced :: is_defined_var;
var 1..3: X_INTRODUCED_29_ ::var_is_introduced ;
var bool: X_INTRODUCED_30_ ::var_is_introduced :: is_defined_var;
var bool: X_INTRODUCED_33_ ::var_is_introduced :: is_defined_var;
var bool: X_INTRODUCED_34_ ::var_is_introduced :: is_defined_var;
var bool: X_INTRODUCED_35_ ::var_is_introduced :: is_defined_var;
var bool: X_INTRODUCED_37_ ::var_is_introduced :: is_defined_var;
var bool: X_INTRODUCED_39_ ::var_is_introduced :: is_defined_var;
var bool: X_INTRODUCED_41_ ::var_is_introduced :: is_defined_var;
var bool: X_INTRODUCED_42_ ::var_is_introduced :: is_defined_var;
var bool: X_INTRODUCED_43_ ::var_is_introduced :: is_defined_var;
var bool: X_INTRODUCED_44_ ::var_is_introduced :: is_defined_var;
var bool: X_INTRODUCED_45_ ::var_is_introduced :: is_defined_var;
var bool: X_INTRODUCED_46_ ::var_is_introduced :: is_defined_var;
var bool: X_INTRODUCED_48_ ::var_is_introduced :: is_defined_var;
var bool: X_INTRODUCED_50_ ::var_is_introduced :: is_defined_var;
var bool: X_INTRODUCED_51_ ::var_is_introduced :: is_defined_var;
var bool: X_INTRODUCED_52_ ::var_is_introduced :: is_defined_var;
var bool: X_INTRODUCED_54_ ::var_is_introduced :: is_defined_var;
var bool: X_INTRODUCED_56_ ::var_is_introduced :: is_defined_var;
var bool: X_INTRODUCED_58_ ::var_is_introduced :: is_defined_var;
var bool: X_INTRODUCED_60_ ::var_is_introduced :: is_defined_var;
var bool: X_INTRODUCED_62_ ::var_is_introduced :: is_defined_var;
var bool: X_INTRODUCED_65_ ::var_is_introduced :: is_defined_var;
var bool: X_INTRODUCED_66_ ::var_is_introduced :: is_defined_var;
var bool: X_INTRODUCED_67_ ::var_is_introduced :: is_defined_var;
var bool: X_INTRODUCED_70_ ::var_is_introduced :: is_defined_var;
var bool: X_INTRODUCED_71_ ::var_is_introduced :: is_defined_var;
var bool: X_INTRODUCED_72_ ::var_is_introduced :: is_defined_var;
var bool: X_INTRODUCED_73_ ::var_is_introduced :: is_defined_var;
var 1..2: X_INTRODUCED_76_ ::var_is_introduced :: is_defined_var;
var 1..2: X_INTRODUCED_77_ ::var_is_introduced :: is_defined_var;
var bool: X_INTRODUCED_78_ ::var_is_introduced :: is_defined_var;
var {11,12,21,22}: X_INTRODUCED_79_ ::var_is_introduced :: is_defined_var;
var 1..2: X_INTRODUCED_80_ ::var_is_introduced ;
var {11,21}: X_INTRODUCED_81_ ::var_is_introduced :: is_defined_var;
var 1..2: X_INTRODUCED_82_ ::var_is_introduced ;
var bool: X_INTRODUCED_83_ ::var_is_introduced :: is_defined_var;
var 1..3: X_INTRODUCED_84_ ::var_is_introduced ;
var 1..3: X_INTRODUCED_85_ ::var_is_introduced ;
var bool: X_INTRODUCED_87_ ::var_is_introduced :: is_defined_var;
var 1..2: X_INTRODUCED_88_ ::var_is_introduced :: is_defined_var;
var bool: X_INTRODUCED_89_ ::var_is_introduced :: is_defined_var;
var {11,12,21,22}: X_INTRODUCED_90_ ::var_is_introduced :: is_defined_var;
var 1..2: X_INTRODUCED_91_ ::var_is_introduced ;
var bool: X_INTRODUCED_93_ ::var_is_introduced :: is_defined_var;
var 1..3: X_INTRODUCED_94_ ::var_is_introduced ;
var bool: X_INTRODUCED_95_ ::var_is_introduced :: is_defined_var;
var 1..2: X_INTRODUCED_96_ ::var_is_introduced :: is_defined_var;
var bool: X_INTRODUCED_98_ ::var_is_introduced :: is_defined_var;
var {11,12,21,22}: X_INTRODUCED_99_ ::var_is_introduced :: is_defined_var;
var 1..2: X_INTRODUCED_100_ ::var_is_introduced ;
var bool: X_INTRODUCED_101_ ::var_is_introduced :: is_defined_var;
var 1..3: X_INTRODUCED_102_ ::var_is_introduced ;
var bool: X_INTRODUCED_103_ ::var_is_introduced :: is_defined_var;
var bool: X_INTRODUCED_106_ ::var_is_introduced :: is_defined_var;
var bool: X_INTRODUCED_107_ ::var_is_introduced :: is_defined_var;
var bool: X_INTRODUCED_108_ ::var_is_introduced :: is_defined_var;
var bool: X_INTRODUCED_110_ ::var_is_introduced :: is_defined_var;
var bool: X_INTRODUCED_111_ ::var_is_introduced :: is_defined_var;
var bool: X_INTRODUCED_112_ ::var_is_introduced :: is_defined_var;
var bool: X_INTRODUCED_114_ ::var_is_introduced :: is_defined_var;
var bool: X_INTRODUCED_116_ ::var_is_introduced :: is_defined_var;
var bool: X_INTRODUCED_117_ ::var_is_introduced :: is_defined_var;
var bool: X_INTRODUCED_118_ ::var_is_introduced :: is_defined_var;
var bool: X_INTRODUCED_119_ ::var_is_introduced :: is_defined_var;
var bool: X_INTRODUCED_120_ ::var_is_introduced :: is_defined_var;
var bool: X_INTRODUCED_121_ ::var_is_introduced :: is_defined_var;
var bool: X_INTRODUCED_123_ ::var_is_introduced :: is_defined_var;
var bool: X_INTRODUCED_125_ ::var_is_introduced :: is_defined_var;
var bool: X_INTRODUCED_128_ ::var_is_introduced :: is_defined_var;
var bool: X_INTRODUCED_130_ ::var_is_introduced :: is_defined_var;
var bool: X_INTRODUCED_131_ ::var_is_introduced :: is_defined_var;
var bool: X_INTRODUCED_132_ ::var_is_introduced :: is_defined_var;
var bool: X_INTRODUCED_133_ ::var_is_introduced :: is_defined_var;
var bool: X_INTRODUCED_137_ ::var_is_introduced :: is_defined_var;
var bool: X_INTRODUCED_138_ ::var_is_introduced :: is_defined_var;
var bool: X_INTRODUCED_141_ ::var_is_introduced :: is_defined_var;
var bool: X_INTRODUCED_145_ ::var_is_introduced :: is_defined_var;
constraint int_lin_ne(X_INTRODUCED_1_,[Vo1,Vo2],0);
constraint int_lin_ne(X_INTRODUCED_1_,[Vo1,Vo3],0);
constraint int_lin_ne(X_INTRODUCED_1_,[Vo1,Vo4],0);
constraint int_lin_ne(X_INTRODUCED_1_,[Vo1,Vp1],0);
constraint int_lin_ne(X_INTRODUCED_1_,[Vo1,Vp2],0);
constraint int_lin_ne(X_INTRODUCED_1_,[Vo1,Vp3],0);
constraint int_lin_ne(X_INTRODUCED_1_,[Vo1,Vp4],0);
constraint int_lin_ne(X_INTRODUCED_1_,[Vo2,Vo3],0);
constraint int_lin_ne(X_INTRODUCED_1_,[Vo2,Vo4],0);
constraint int_lin_ne(X_INTRODUCED_1_,[Vo2,Vp1],0);
constraint int_lin_ne(X_INTRODUCED_1_,[Vo2,Vp2],0);
constraint int_lin_ne(X_INTRODUCED_1_,[Vo2,Vp3],0);
constraint int_lin_ne(X_INTRODUCED_1_,[Vo2,Vp4],0);
constraint int_lin_ne(X_INTRODUCED_1_,[Vo3,Vo4],0);
constraint int_lin_ne(X_INTRODUCED_1_,[Vo3,Vp1],0);
constraint int_lin_ne(X_INTRODUCED_1_,[Vo3,Vp2],0);
constraint int_lin_ne(X_INTRODUCED_1_,[Vo3,Vp3],0);
constraint int_lin_ne(X_INTRODUCED_1_,[Vo3,Vp4],0);
constraint int_lin_ne(X_INTRODUCED_1_,[Vo4,Vp1],0);
constraint int_lin_ne(X_INTRODUCED_1_,[Vo4,Vp2],0);
constraint int_lin_ne(X_INTRODUCED_1_,[Vo4,Vp3],0);
constraint int_lin_ne(X_INTRODUCED_1_,[Vo4,Vp4],0);
constraint int_lin_ne(X_INTRODUCED_1_,[Vp1,Vp2],0);
constraint int_lin_ne(X_INTRODUCED_1_,[Vp1,Vp3],0);
constraint int_lin_ne(X_INTRODUCED_1_,[Vp1,Vp4],0);
constraint int_lin_ne(X_INTRODUCED_1_,[Vp2,Vp3],0);
constraint int_lin_ne(X_INTRODUCED_1_,[Vp2,Vp4],0);
constraint int_lin_ne(X_INTRODUCED_1_,[Vp3,Vp4],0);
constraint int_div(Vo2,100,X_INTRODUCED_2_):: defines_var(X_INTRODUCED_2_);
constraint int_div(Vo1,100,X_INTRODUCED_3_):: defines_var(X_INTRODUCED_3_);
constraint int_div(Vo2,10,X_INTRODUCED_5_):: defines_var(X_INTRODUCED_5_);
constraint int_mod(X_INTRODUCED_5_,10,X_INTRODUCED_6_);
constraint int_div(Vo1,10,X_INTRODUCED_7_):: defines_var(X_INTRODUCED_7_);
constraint int_mod(X_INTRODUCED_7_,10,X_INTRODUCED_8_);
constraint int_mod(Vo2,10,X_INTRODUCED_10_);
constraint int_mod(Vo1,10,X_INTRODUCED_12_);
constraint int_div(Vo3,100,X_INTRODUCED_15_):: defines_var(X_INTRODUCED_15_);
constraint int_div(Vo3,10,X_INTRODUCED_18_):: defines_var(X_INTRODUCED_18_);
constraint int_mod(X_INTRODUCED_18_,10,X_INTRODUCED_19_);
constraint int_mod(Vo3,10,X_INTRODUCED_21_);
constraint int_div(Vo4,100,X_INTRODUCED_23_):: defines_var(X_INTRODUCED_23_);
constraint int_div(Vo4,10,X_INTRODUCED_25_):: defines_var(X_INTRODUCED_25_);
constraint int_mod(X_INTRODUCED_25_,10,X_INTRODUCED_26_);
constraint int_mod(Vo4,10,X_INTRODUCED_29_);
constraint array_bool_and([X_INTRODUCED_30_,X_INTRODUCED_28_,X_INTRODUCED_24_,X_INTRODUCED_22_,X_INTRODUCED_20_,X_INTRODUCED_17_,X_INTRODUCED_14_,X_INTRODUCED_9_,X_INTRODUCED_4_],false);
constraint array_bool_and([X_INTRODUCED_39_,X_INTRODUCED_37_,X_INTRODUCED_35_,X_INTRODUCED_34_,X_INTRODUCED_33_,X_INTRODUCED_30_,X_INTRODUCED_24_,X_INTRODUCED_20_,X_INTRODUCED_9_],false);
constraint array_bool_and([X_INTRODUCED_46_,X_INTRODUCED_45_,X_INTRODUCED_44_,X_INTRODUCED_43_,X_INTRODUCED_34_,X_INTRODUCED_24_,X_INTRODUCED_22_,X_INTRODUCED_20_,X_INTRODUCED_4_],false);
constraint array_bool_and([X_INTRODUCED_44_,X_INTRODUCED_41_,X_INTRODUCED_30_,X_INTRODUCED_28_,X_INTRODUCED_24_,X_INTRODUCED_22_,X_INTRODUCED_20_,X_INTRODUCED_9_,X_INTRODUCED_4_],false);
constraint array_bool_and([X_INTRODUCED_52_,X_INTRODUCED_51_,X_INTRODUCED_50_,X_INTRODUCED_45_,X_INTRODUCED_35_,X_INTRODUCED_34_,X_INTRODUCED_24_,X_INTRODUCED_22_,X_INTRODUCED_9_],false);
constraint array_bool_and([X_INTRODUCED_54_,X_INTRODUCED_52_,X_INTRODUCED_45_,X_INTRODUCED_44_,X_INTRODUCED_34_,X_INTRODUCED_24_,X_INTRODUCED_22_,X_INTRODUCED_20_,X_INTRODUCED_4_],false);
constraint array_bool_and([X_INTRODUCED_56_,X_INTRODUCED_51_,X_INTRODUCED_45_,X_INTRODUCED_35_,X_INTRODUCED_30_,X_INTRODUCED_22_,X_INTRODUCED_14_,X_INTRODUCED_9_,X_INTRODUCED_4_],false);
constraint array_bool_and([X_INTRODUCED_58_,X_INTRODUCED_35_,X_INTRODUCED_34_,X_INTRODUCED_33_,X_INTRODUCED_30_,X_INTRODUCED_28_,X_INTRODUCED_24_,X_INTRODUCED_20_,X_INTRODUCED_9_],false);
constraint array_bool_and([X_INTRODUCED_60_,X_INTRODUCED_56_,X_INTRODUCED_45_,X_INTRODUCED_41_,X_INTRODUCED_35_,X_INTRODUCED_30_,X_INTRODUCED_22_,X_INTRODUCED_9_,X_INTRODUCED_4_],false);
constraint array_bool_and([X_INTRODUCED_62_,X_INTRODUCED_58_,X_INTRODUCED_54_,X_INTRODUCED_45_,X_INTRODUCED_35_,X_INTRODUCED_34_,X_INTRODUCED_30_,X_INTRODUCED_20_,X_INTRODUCED_4_],false);
constraint array_bool_and([X_INTRODUCED_54_,X_INTRODUCED_46_,X_INTRODUCED_45_,X_INTRODUCED_34_,X_INTRODUCED_24_,X_INTRODUCED_22_,X_INTRODUCED_20_,X_INTRODUCED_17_,X_INTRODUCED_4_],false);
constraint array_bool_and([X_INTRODUCED_50_,X_INTRODUCED_37_,X_INTRODUCED_35_,X_INTRODUCED_34_,X_INTRODUCED_30_,X_INTRODUCED_28_,X_INTRODUCED_24_,X_INTRODUCED_20_,X_INTRODUCED_9_],false);
constraint array_bool_and([X_INTRODUCED_62_,X_INTRODUCED_51_,X_INTRODUCED_45_,X_INTRODUCED_41_,X_INTRODUCED_35_,X_INTRODUCED_30_,X_INTRODUCED_22_,X_INTRODUCED_9_,X_INTRODUCED_4_],false);
constraint array_bool_and([X_INTRODUCED_56_,X_INTRODUCED_54_,X_INTRODUCED_45_,X_INTRODUCED_37_,X_INTRODUCED_35_,X_INTRODUCED_34_,X_INTRODUCED_30_,X_INTRODUCED_20_,X_INTRODUCED_4_],false);
constraint array_bool_and([X_INTRODUCED_51_,X_INTRODUCED_46_,X_INTRODUCED_45_,X_INTRODUCED_35_,X_INTRODUCED_34_,X_INTRODUCED_33_,X_INTRODUCED_24_,X_INTRODUCED_22_,X_INTRODUCED_9_],false);
constraint array_bool_or([X_INTRODUCED_73_,X_INTRODUCED_72_,X_INTRODUCED_71_,X_INTRODUCED_70_,X_INTRODUCED_67_,X_INTRODUCED_66_,X_INTRODUCED_65_,X_INTRODUCED_48_,X_INTRODUCED_42_],true);
constraint int_div(Vp2,100,X_INTRODUCED_76_):: defines_var(X_INTRODUCED_76_);
constraint int_div(Vp1,100,X_INTRODUCED_77_):: defines_var(X_INTRODUCED_77_);
constraint int_div(Vp2,10,X_INTRODUCED_79_):: defines_var(X_INTRODUCED_79_);
constraint int_mod(X_INTRODUCED_79_,10,X_INTRODUCED_80_);
constraint int_div(Vp1,10,X_INTRODUCED_81_):: defines_var(X_INTRODUCED_81_);
constraint int_mod(X_INTRODUCED_81_,10,X_INTRODUCED_82_);
constraint int_mod(Vp2,10,X_INTRODUCED_84_);
constraint int_mod(Vp1,10,X_INTRODUCED_85_);
constraint int_div(Vp3,100,X_INTRODUCED_88_):: defines_var(X_INTRODUCED_88_);
constraint int_div(Vp3,10,X_INTRODUCED_90_):: defines_var(X_INTRODUCED_90_);
constraint int_mod(X_INTRODUCED_90_,10,X_INTRODUCED_91_);
constraint int_mod(Vp3,10,X_INTRODUCED_94_);
constraint int_div(Vp4,100,X_INTRODUCED_96_):: defines_var(X_INTRODUCED_96_);
constraint int_div(Vp4,10,X_INTRODUCED_99_):: defines_var(X_INTRODUCED_99_);
constraint int_mod(X_INTRODUCED_99_,10,X_INTRODUCED_100_);
constraint int_mod(Vp4,10,X_INTRODUCED_102_);
constraint array_bool_and([X_INTRODUCED_103_,X_INTRODUCED_101_,X_INTRODUCED_98_,X_INTRODUCED_95_,X_INTRODUCED_93_,X_INTRODUCED_89_,X_INTRODUCED_87_,X_INTRODUCED_83_,X_INTRODUCED_78_],false);
constraint array_bool_and([X_INTRODUCED_114_,X_INTRODUCED_112_,X_INTRODUCED_111_,X_INTRODUCED_110_,X_INTRODUCED_108_,X_INTRODUCED_107_,X_INTRODUCED_106_,X_INTRODUCED_101_,X_INTRODUCED_83_],false);
constraint array_bool_and([X_INTRODUCED_121_,X_INTRODUCED_120_,X_INTRODUCED_119_,X_INTRODUCED_117_,X_INTRODUCED_116_,X_INTRODUCED_112_,X_INTRODUCED_107_,X_INTRODUCED_103_,X_INTRODUCED_83_],false);
constraint array_bool_and([X_INTRODUCED_123_,X_INTRODUCED_117_,X_INTRODUCED_114_,X_INTRODUCED_112_,X_INTRODUCED_111_,X_INTRODUCED_110_,X_INTRODUCED_107_,X_INTRODUCED_101_,X_INTRODUCED_78_],false);
constraint array_bool_and([X_INTRODUCED_125_,X_INTRODUCED_121_,X_INTRODUCED_120_,X_INTRODUCED_119_,X_INTRODUCED_112_,X_INTRODUCED_108_,X_INTRODUCED_103_,X_INTRODUCED_83_,X_INTRODUCED_78_],false);
constraint array_bool_and([X_INTRODUCED_125_,X_INTRODUCED_120_,X_INTRODUCED_110_,X_INTRODUCED_103_,X_INTRODUCED_101_,X_INTRODUCED_98_,X_INTRODUCED_89_,X_INTRODUCED_83_,X_INTRODUCED_78_],false);
constraint array_bool_and([X_INTRODUCED_128_,X_INTRODUCED_117_,X_INTRODUCED_116_,X_INTRODUCED_112_,X_INTRODUCED_111_,X_INTRODUCED_110_,X_INTRODUCED_107_,X_INTRODUCED_101_,X_INTRODUCED_83_],false);
constraint array_bool_and([X_INTRODUCED_133_,X_INTRODUCED_123_,X_INTRODUCED_120_,X_INTRODUCED_110_,X_INTRODUCED_107_,X_INTRODUCED_103_,X_INTRODUCED_101_,X_INTRODUCED_89_,X_INTRODUCED_78_],false);
constraint array_bool_and([X_INTRODUCED_123_,X_INTRODUCED_110_,X_INTRODUCED_107_,X_INTRODUCED_103_,X_INTRODUCED_101_,X_INTRODUCED_98_,X_INTRODUCED_95_,X_INTRODUCED_89_,X_INTRODUCED_78_],false);
constraint array_bool_and([X_INTRODUCED_130_,X_INTRODUCED_125_,X_INTRODUCED_120_,X_INTRODUCED_119_,X_INTRODUCED_117_,X_INTRODUCED_112_,X_INTRODUCED_103_,X_INTRODUCED_83_,X_INTRODUCED_78_],false);
constraint array_bool_and([X_INTRODUCED_138_,X_INTRODUCED_114_,X_INTRODUCED_112_,X_INTRODUCED_111_,X_INTRODUCED_108_,X_INTRODUCED_107_,X_INTRODUCED_101_,X_INTRODUCED_93_,X_INTRODUCED_78_],false);
constraint array_bool_and([X_INTRODUCED_128_,X_INTRODUCED_123_,X_INTRODUCED_112_,X_INTRODUCED_111_,X_INTRODUCED_110_,X_INTRODUCED_108_,X_INTRODUCED_107_,X_INTRODUCED_101_,X_INTRODUCED_78_],false);
constraint array_bool_and([X_INTRODUCED_138_,X_INTRODUCED_128_,X_INTRODUCED_117_,X_INTRODUCED_112_,X_INTRODUCED_111_,X_INTRODUCED_107_,X_INTRODUCED_101_,X_INTRODUCED_93_,X_INTRODUCED_78_],false);
constraint array_bool_and([X_INTRODUCED_138_,X_INTRODUCED_120_,X_INTRODUCED_107_,X_INTRODUCED_103_,X_INTRODUCED_101_,X_INTRODUCED_98_,X_INTRODUCED_93_,X_INTRODUCED_89_,X_INTRODUCED_78_],false);
constraint array_bool_and([X_INTRODUCED_121_,X_INTRODUCED_119_,X_INTRODUCED_112_,X_INTRODUCED_108_,X_INTRODUCED_107_,X_INTRODUCED_106_,X_INTRODUCED_103_,X_INTRODUCED_95_,X_INTRODUCED_83_],false);
constraint array_bool_and([X_INTRODUCED_133_,X_INTRODUCED_110_,X_INTRODUCED_103_,X_INTRODUCED_101_,X_INTRODUCED_95_,X_INTRODUCED_89_,X_INTRODUCED_87_,X_INTRODUCED_83_,X_INTRODUCED_78_],false);
constraint array_bool_and([X_INTRODUCED_121_,X_INTRODUCED_119_,X_INTRODUCED_117_,X_INTRODUCED_112_,X_INTRODUCED_103_,X_INTRODUCED_95_,X_INTRODUCED_87_,X_INTRODUCED_83_,X_INTRODUCED_78_],false);
constraint array_bool_and([X_INTRODUCED_138_,X_INTRODUCED_133_,X_INTRODUCED_107_,X_INTRODUCED_103_,X_INTRODUCED_101_,X_INTRODUCED_95_,X_INTRODUCED_93_,X_INTRODUCED_89_,X_INTRODUCED_78_],false);
constraint array_bool_or([X_INTRODUCED_141_,X_INTRODUCED_137_,X_INTRODUCED_132_,X_INTRODUCED_131_,X_INTRODUCED_118_,X_INTRODUCED_145_],true);
constraint int_eq_reif(X_INTRODUCED_2_,X_INTRODUCED_3_,X_INTRODUCED_4_):: defines_var(X_INTRODUCED_4_);
constraint int_eq_reif(X_INTRODUCED_6_,X_INTRODUCED_8_,X_INTRODUCED_9_):: defines_var(X_INTRODUCED_9_);
constraint int_lin_eq_reif(X_INTRODUCED_1_,[X_INTRODUCED_10_,X_INTRODUCED_12_],-1,X_INTRODUCED_14_):: defines_var(X_INTRODUCED_14_);
constraint int_lin_eq_reif(X_INTRODUCED_1_,[X_INTRODUCED_15_,X_INTRODUCED_3_],1,X_INTRODUCED_17_):: defines_var(X_INTRODUCED_17_);
constraint int_eq_reif(X_INTRODUCED_19_,X_INTRODUCED_8_,X_INTRODUCED_20_):: defines_var(X_INTRODUCED_20_);
constraint int_eq_reif(X_INTRODUCED_21_,X_INTRODUCED_12_,X_INTRODUCED_22_):: defines_var(X_INTRODUCED_22_);
constraint int_eq_reif(X_INTRODUCED_23_,X_INTRODUCED_3_,X_INTRODUCED_24_):: defines_var(X_INTRODUCED_24_);
constraint int_lin_eq_reif(X_INTRODUCED_1_,[X_INTRODUCED_26_,X_INTRODUCED_8_],-1,X_INTRODUCED_28_):: defines_var(X_INTRODUCED_28_);
constraint int_eq_reif(X_INTRODUCED_29_,X_INTRODUCED_12_,X_INTRODUCED_30_):: defines_var(X_INTRODUCED_30_);
constraint int_lin_eq_reif(X_INTRODUCED_1_,[X_INTRODUCED_2_,X_INTRODUCED_3_],-1,X_INTRODUCED_33_):: defines_var(X_INTRODUCED_33_);
constraint int_eq_reif(X_INTRODUCED_10_,X_INTRODUCED_12_,X_INTRODUCED_34_):: defines_var(X_INTRODUCED_34_);
constraint int_eq_reif(X_INTRODUCED_15_,X_INTRODUCED_3_,X_INTRODUCED_35_):: defines_var(X_INTRODUCED_35_);
constraint int_lin_eq_reif(X_INTRODUCED_1_,[X_INTRODUCED_21_,X_INTRODUCED_12_],1,X_INTRODUCED_37_):: defines_var(X_INTRODUCED_37_);
constraint int_lin_eq_reif(X_INTRODUCED_1_,[X_INTRODUCED_26_,X_INTRODUCED_8_],1,X_INTRODUCED_39_):: defines_var(X_INTRODUCED_39_);
constraint int_lin_eq_reif(X_INTRODUCED_1_,[X_INTRODUCED_10_,X_INTRODUCED_12_],1,X_INTRODUCED_41_):: defines_var(X_INTRODUCED_41_);
constraint array_bool_and([X_INTRODUCED_41_,X_INTRODUCED_39_,X_INTRODUCED_30_,X_INTRODUCED_24_,X_INTRODUCED_22_,X_INTRODUCED_20_,X_INTRODUCED_17_,X_INTRODUCED_9_,X_INTRODUCED_4_],X_INTRODUCED_42_):: defines_var(X_INTRODUCED_42_);
constraint int_lin_eq_reif(X_INTRODUCED_1_,[X_INTRODUCED_6_,X_INTRODUCED_8_],1,X_INTRODUCED_43_):: defines_var(X_INTRODUCED_43_);
constraint int_lin_eq_reif(X_INTRODUCED_1_,[X_INTRODUCED_15_,X_INTRODUCED_3_],-1,X_INTRODUCED_44_):: defines_var(X_INTRODUCED_44_);
constraint int_eq_reif(X_INTRODUCED_26_,X_INTRODUCED_8_,X_INTRODUCED_45_):: defines_var(X_INTRODUCED_45_);
constraint int_lin_eq_reif(X_INTRODUCED_1_,[X_INTRODUCED_29_,X_INTRODUCED_12_],1,X_INTRODUCED_46_):: defines_var(X_INTRODUCED_46_);
constraint array_bool_and([X_INTRODUCED_44_,X_INTRODUCED_39_,X_INTRODUCED_30_,X_INTRODUCED_24_,X_INTRODUCED_22_,X_INTRODUCED_20_,X_INTRODUCED_14_,X_INTRODUCED_9_,X_INTRODUCED_4_],X_INTRODUCED_48_):: defines_var(X_INTRODUCED_48_);
constraint int_lin_eq_reif(X_INTRODUCED_1_,[X_INTRODUCED_2_,X_INTRODUCED_3_],1,X_INTRODUCED_50_):: defines_var(X_INTRODUCED_50_);
constraint int_lin_eq_reif(X_INTRODUCED_1_,[X_INTRODUCED_19_,X_INTRODUCED_8_],-1,X_INTRODUCED_51_):: defines_var(X_INTRODUCED_51_);
constraint int_lin_eq_reif(X_INTRODUCED_1_,[X_INTRODUCED_29_,X_INTRODUCED_12_],-1,X_INTRODUCED_52_):: defines_var(X_INTRODUCED_52_);
constraint int_lin_eq_reif(X_INTRODUCED_1_,[X_INTRODUCED_6_,X_INTRODUCED_8_],-1,X_INTRODUCED_54_):: defines_var(X_INTRODUCED_54_);
constraint int_lin_eq_reif(X_INTRODUCED_1_,[X_INTRODUCED_23_,X_INTRODUCED_3_],-1,X_INTRODUCED_56_):: defines_var(X_INTRODUCED_56_);
constraint int_lin_eq_reif(X_INTRODUCED_1_,[X_INTRODUCED_21_,X_INTRODUCED_12_],-1,X_INTRODUCED_58_):: defines_var(X_INTRODUCED_58_);
constraint int_lin_eq_reif(X_INTRODUCED_1_,[X_INTRODUCED_19_,X_INTRODUCED_8_],1,X_INTRODUCED_60_):: defines_var(X_INTRODUCED_60_);
constraint int_lin_eq_reif(X_INTRODUCED_1_,[X_INTRODUCED_23_,X_INTRODUCED_3_],1,X_INTRODUCED_62_):: defines_var(X_INTRODUCED_62_);
constraint array_bool_and([X_INTRODUCED_62_,X_INTRODUCED_60_,X_INTRODUCED_45_,X_INTRODUCED_35_,X_INTRODUCED_30_,X_INTRODUCED_22_,X_INTRODUCED_14_,X_INTRODUCED_9_,X_INTRODUCED_4_],X_INTRODUCED_65_):: defines_var(X_INTRODUCED_65_);
constraint array_bool_and([X_INTRODUCED_60_,X_INTRODUCED_52_,X_INTRODUCED_45_,X_INTRODUCED_35_,X_INTRODUCED_34_,X_INTRODUCED_33_,X_INTRODUCED_24_,X_INTRODUCED_22_,X_INTRODUCED_9_],X_INTRODUCED_66_):: defines_var(X_INTRODUCED_66_);
constraint array_bool_and([X_INTRODUCED_60_,X_INTRODUCED_50_,X_INTRODUCED_46_,X_INTRODUCED_45_,X_INTRODUCED_35_,X_INTRODUCED_34_,X_INTRODUCED_24_,X_INTRODUCED_22_,X_INTRODUCED_9_],X_INTRODUCED_67_):: defines_var(X_INTRODUCED_67_);
constraint array_bool_and([X_INTRODUCED_62_,X_INTRODUCED_45_,X_INTRODUCED_43_,X_INTRODUCED_37_,X_INTRODUCED_35_,X_INTRODUCED_34_,X_INTRODUCED_30_,X_INTRODUCED_20_,X_INTRODUCED_4_],X_INTRODUCED_70_):: defines_var(X_INTRODUCED_70_);
constraint array_bool_and([X_INTRODUCED_58_,X_INTRODUCED_56_,X_INTRODUCED_45_,X_INTRODUCED_43_,X_INTRODUCED_35_,X_INTRODUCED_34_,X_INTRODUCED_30_,X_INTRODUCED_20_,X_INTRODUCED_4_],X_INTRODUCED_71_):: defines_var(X_INTRODUCED_71_);
constraint array_bool_and([X_INTRODUCED_52_,X_INTRODUCED_45_,X_INTRODUCED_43_,X_INTRODUCED_34_,X_INTRODUCED_24_,X_INTRODUCED_22_,X_INTRODUCED_20_,X_INTRODUCED_17_,X_INTRODUCED_4_],X_INTRODUCED_72_):: defines_var(X_INTRODUCED_72_);
constraint array_bool_and([X_INTRODUCED_58_,X_INTRODUCED_50_,X_INTRODUCED_39_,X_INTRODUCED_35_,X_INTRODUCED_34_,X_INTRODUCED_30_,X_INTRODUCED_24_,X_INTRODUCED_20_,X_INTRODUCED_9_],X_INTRODUCED_73_):: defines_var(X_INTRODUCED_73_);
constraint int_eq_reif(X_INTRODUCED_76_,X_INTRODUCED_77_,X_INTRODUCED_78_):: defines_var(X_INTRODUCED_78_);
constraint int_eq_reif(X_INTRODUCED_80_,X_INTRODUCED_82_,X_INTRODUCED_83_):: defines_var(X_INTRODUCED_83_);
constraint int_lin_eq_reif(X_INTRODUCED_1_,[X_INTRODUCED_84_,X_INTRODUCED_85_],-1,X_INTRODUCED_87_):: defines_var(X_INTRODUCED_87_);
constraint int_eq_reif(X_INTRODUCED_88_,X_INTRODUCED_77_,X_INTRODUCED_89_):: defines_var(X_INTRODUCED_89_);
constraint int_lin_eq_reif(X_INTRODUCED_1_,[X_INTRODUCED_91_,X_INTRODUCED_82_],1,X_INTRODUCED_93_):: defines_var(X_INTRODUCED_93_);
constraint int_lin_eq_reif(X_INTRODUCED_1_,[X_INTRODUCED_94_,X_INTRODUCED_85_],-1,X_INTRODUCED_95_):: defines_var(X_INTRODUCED_95_);
constraint int_lin_eq_reif(X_INTRODUCED_1_,[X_INTRODUCED_96_,X_INTRODUCED_77_],-1,X_INTRODUCED_98_):: defines_var(X_INTRODUCED_98_);
constraint int_eq_reif(X_INTRODUCED_100_,X_INTRODUCED_82_,X_INTRODUCED_101_):: defines_var(X_INTRODUCED_101_);
constraint int_eq_reif(X_INTRODUCED_102_,X_INTRODUCED_85_,X_INTRODUCED_103_):: defines_var(X_INTRODUCED_103_);
constraint int_lin_eq_reif(X_INTRODUCED_1_,[X_INTRODUCED_76_,X_INTRODUCED_77_],1,X_INTRODUCED_106_):: defines_var(X_INTRODUCED_106_);
constraint int_eq_reif(X_INTRODUCED_84_,X_INTRODUCED_85_,X_INTRODUCED_107_):: defines_var(X_INTRODUCED_107_);
constraint int_lin_eq_reif(X_INTRODUCED_1_,[X_INTRODUCED_88_,X_INTRODUCED_77_],1,X_INTRODUCED_108_):: defines_var(X_INTRODUCED_108_);
constraint int_lin_eq_reif(X_INTRODUCED_1_,[X_INTRODUCED_91_,X_INTRODUCED_82_],-1,X_INTRODUCED_110_):: defines_var(X_INTRODUCED_110_);
constraint int_eq_reif(X_INTRODUCED_94_,X_INTRODUCED_85_,X_INTRODUCED_111_):: defines_var(X_INTRODUCED_111_);
constraint int_eq_reif(X_INTRODUCED_96_,X_INTRODUCED_77_,X_INTRODUCED_112_):: defines_var(X_INTRODUCED_112_);
constraint int_lin_eq_reif(X_INTRODUCED_1_,[X_INTRODUCED_102_,X_INTRODUCED_85_],1,X_INTRODUCED_114_):: defines_var(X_INTRODUCED_114_);
constraint int_lin_eq_reif(X_INTRODUCED_1_,[X_INTRODUCED_76_,X_INTRODUCED_77_],-1,X_INTRODUCED_116_):: defines_var(X_INTRODUCED_116_);
constraint int_lin_eq_reif(X_INTRODUCED_1_,[X_INTRODUCED_88_,X_INTRODUCED_77_],-1,X_INTRODUCED_117_):: defines_var(X_INTRODUCED_117_);
constraint array_bool_and([X_INTRODUCED_117_,X_INTRODUCED_116_,X_INTRODUCED_114_,X_INTRODUCED_112_,X_INTRODUCED_111_,X_INTRODUCED_107_,X_INTRODUCED_101_,X_INTRODUCED_93_,X_INTRODUCED_83_],X_INTRODUCED_118_):: defines_var(X_INTRODUCED_118_);
constraint int_eq_reif(X_INTRODUCED_91_,X_INTRODUCED_82_,X_INTRODUCED_119_):: defines_var(X_INTRODUCED_119_);
constraint int_lin_eq_reif(X_INTRODUCED_1_,[X_INTRODUCED_94_,X_INTRODUCED_85_],1,X_INTRODUCED_120_):: defines_var(X_INTRODUCED_120_);
constraint int_lin_eq_reif(X_INTRODUCED_1_,[X_INTRODUCED_100_,X_INTRODUCED_82_],-1,X_INTRODUCED_121_):: defines_var(X_INTRODUCED_121_);
constraint int_lin_eq_reif(X_INTRODUCED_1_,[X_INTRODUCED_80_,X_INTRODUCED_82_],-1,X_INTRODUCED_123_):: defines_var(X_INTRODUCED_123_);
constraint int_lin_eq_reif(X_INTRODUCED_1_,[X_INTRODUCED_84_,X_INTRODUCED_85_],1,X_INTRODUCED_125_):: defines_var(X_INTRODUCED_125_);
constraint int_lin_eq_reif(X_INTRODUCED_1_,[X_INTRODUCED_102_,X_INTRODUCED_85_],-1,X_INTRODUCED_128_):: defines_var(X_INTRODUCED_128_);
constraint int_lin_eq_reif(X_INTRODUCED_1_,[X_INTRODUCED_100_,X_INTRODUCED_82_],1,X_INTRODUCED_130_):: defines_var(X_INTRODUCED_130_);
constraint array_bool_and([X_INTRODUCED_130_,X_INTRODUCED_120_,X_INTRODUCED_119_,X_INTRODUCED_112_,X_INTRODUCED_108_,X_INTRODUCED_107_,X_INTRODUCED_106_,X_INTRODUCED_103_,X_INTRODUCED_83_],X_INTRODUCED_131_):: defines_var(X_INTRODUCED_131_);
constraint array_bool_and([X_INTRODUCED_130_,X_INTRODUCED_119_,X_INTRODUCED_117_,X_INTRODUCED_116_,X_INTRODUCED_112_,X_INTRODUCED_107_,X_INTRODUCED_103_,X_INTRODUCED_95_,X_INTRODUCED_83_],X_INTRODUCED_132_):: defines_var(X_INTRODUCED_132_);
constraint int_lin_eq_reif(X_INTRODUCED_1_,[X_INTRODUCED_96_,X_INTRODUCED_77_],1,X_INTRODUCED_133_):: defines_var(X_INTRODUCED_133_);
constraint array_bool_and([X_INTRODUCED_133_,X_INTRODUCED_125_,X_INTRODUCED_120_,X_INTRODUCED_103_,X_INTRODUCED_101_,X_INTRODUCED_93_,X_INTRODUCED_89_,X_INTRODUCED_83_,X_INTRODUCED_78_],X_INTRODUCED_137_):: defines_var(X_INTRODUCED_137_);
constraint int_lin_eq_reif(X_INTRODUCED_1_,[X_INTRODUCED_80_,X_INTRODUCED_82_],1,X_INTRODUCED_138_):: defines_var(X_INTRODUCED_138_);
constraint array_bool_and([X_INTRODUCED_130_,X_INTRODUCED_119_,X_INTRODUCED_112_,X_INTRODUCED_108_,X_INTRODUCED_103_,X_INTRODUCED_95_,X_INTRODUCED_87_,X_INTRODUCED_83_,X_INTRODUCED_78_],X_INTRODUCED_141_):: defines_var(X_INTRODUCED_141_);
constraint array_bool_and([X_INTRODUCED_128_,X_INTRODUCED_112_,X_INTRODUCED_111_,X_INTRODUCED_108_,X_INTRODUCED_107_,X_INTRODUCED_106_,X_INTRODUCED_101_,X_INTRODUCED_93_,X_INTRODUCED_83_],X_INTRODUCED_145_):: defines_var(X_INTRODUCED_145_);
solve  satisfy;
